\ENCODING=ISO-8859-1
\Problem name: ilog.cplex

Minimize
 obj1: 95639 x1 + 98333 x2 + 93503 x3 + 108444 x4 + 104574 x5 + 101573 x6
       + 93343 x7 + 91465 x8 + 104195 x9 + 91658 x10 + 100183 x11 + 99025 x12
       + 92366 x13 + 99232 x14 + 95230 x15 + 97921 x16 + 100023 x17
       + 104322 x18 + 101177 x19 + 90362 x20 + 102171 x21 + 108438 x22
       + 97643 x23 + 108254 x24 + 104656 x25 + 108638 x26 + 104913 x27
       + 107835 x28 + 93342 x29 + 107381 x30 + 109577 x31 + 94569 x32
       + 95141 x33 + 99368 x34 + 108769 x35 + 108427 x36 + 108789 x37
       + 94533 x38 + 108520 x39 + 100455 x40 + 97370 x41 + 105011 x42
       + 106100 x43 + 92958 x44 + 94276 x45 + 103071 x46 + 96267 x47
       + 97701 x48 + 99633 x49 + 106955 x50 + 106961 x51 + 109169 x52
       + 95174 x53 + 91963 x54 + 91287 x55 + 93267 x56 + 102125 x57 + 95320 x58
       + 99476 x59 + 95733 x60 + 99107 x61 + 103080 x62 + 95321 x63
       + 103800 x64 + 102275 x65 + 96115 x66 + 94304 x67 + 91004 x68
       + 102401 x69 + 107264 x70 + 102974 x71 + 95640 x72 + 105477 x73
       + 99262 x74 + 109057 x75 + 102949 x76 + 98803 x77 + 107503 x78
       + 93981 x79 + 101280 x80 + 106344 x81 + 101023 x82 + 96746 x83
       + 98453 x84 + 96249 x85 + 94974 x86 + 94620 x87 + 91058 x88 + 98714 x89
       + 101522 x90 + 107286 x91 + 105559 x92 + 101935 x93 + 98940 x94
       + 108456 x95 + 103265 x96 + 104087 x97 + 97095 x98 + 96930 x99
       + 109960 x100 + 90020 x101 + 101651 x102 + 97726 x103 + 95395 x104
       + 92853 x105 + 108974 x106 + 93101 x107 + 107864 x108 + 92640 x109
       + 99101 x110 + 103199 x111 + 104727 x112 + 96992 x113 + 95047 x114
       + 106495 x115 + 91020 x116 + 101822 x117 + 103348 x118 + 91360 x119
       + 105169 x120 + 93370 x121 + 94853 x122 + 107105 x123 + 102733 x124
       + 92323 x125 + 109431 x126 + 107432 x127 + 103319 x128 + 93775 x129
       + 100704 x130 + 96296 x131 + 100177 x132 + 93740 x133 + 101192 x134
       + 100969 x135 + 96917 x136 + 94269 x137 + 90074 x138 + 101290 x139
       + 100985 x140 + 106289 x141 + 92230 x142 + 109536 x143 + 94475 x144
       + 98301 x145 + 96640 x146 + 102505 x147 + 101606 x148 + 107624 x149
       + 100139 x150 + 93043 x151 + 92321 x152 + 98398 x153 + 102085 x154
       + 91102 x155 + 108828 x156 + 93674 x157 + 95683 x158 + 92848 x159
       + 99883 x160 + 107733 x161 + 102482 x162 + 90445 x163 + 96241 x164
       + 99133 x165 + 98020 x166 + 94819 x167 + 99921 x168 + 95022 x169
       + 98621 x170 + 109066 x171 + 109819 x172 + 102890 x173 + 102024 x174
       + 101110 x175 + 106660 x176 + 107218 x177 + 97847 x178 + 100801 x179
       + 91435 x180 + 93151 x181 + 109455 x182 + 99992 x183 + 92831 x184
       + 94151 x185 + 109604 x186 + 107354 x187 + 98948 x188 + 104189 x189
       + 96690 x190 + 104976 x191 + 107311 x192 + 108100 x193 + 103417 x194
       + 108866 x195 + 103228 x196 + 96122 x197 + 96500 x198 + 104662 x199
       + 107297 x200 + 100798 x201 + 103944 x202 + 103016 x203 + 103077 x204
       + 109871 x205 + 107481 x206 + 106532 x207 + 102679 x208 + 100705 x209
       + 92177 x210 + 102068 x211 + 97832 x212 + 108489 x213 + 102718 x214
       + 101776 x215 + 96813 x216 + 97868 x217 + 109043 x218 + 106425 x219
       + 106087 x220 + 95599 x221 + 92752 x222 + 95357 x223 + 99566 x224
       + 100480 x225 + 90117 x226 + 98840 x227 + 108146 x228 + 96018 x229
       + 107531 x230 + 100646 x231 + 97463 x232 + 91161 x233 + 100906 x234
       + 91357 x235 + 102802 x236 + 104921 x237 + 101761 x238 + 106186 x239
       + 96660 x240 + 96666 x241 + 96852 x242 + 93147 x243 + 107186 x244
       + 99421 x245 + 90921 x246 + 99610 x247 + 107678 x248 + 109228 x249
       + 90916 x250 + 107948 x251 + 99303 x252 + 99825 x253 + 91915 x254
       + 107745 x255 + 99218 x256 + 101878 x257 + 93489 x258 + 93317 x259
       + 97301 x260 + 109390 x261 + 106805 x262 + 101825 x263 + 100541 x264
       + 104066 x265 + 104764 x266 + 100864 x267 + 106162 x268 + 108327 x269
       + 103522 x270 + 92832 x271 + 105132 x272 + 94817 x273 + 100458 x274
       + 90917 x275 + 97229 x276 + 103118 x277 + 101042 x278 + 104669 x279
       + 99027 x280 + 102811 x281 + 105028 x282 + 91908 x283 + 106955 x284
       + 96137 x285 + 91022 x286 + 108100 x287 + 99022 x288 + 93203 x289
       + 97696 x290 + 94361 x291 + 100838 x292 + 97992 x293 + 109806 x294
       + 90890 x295 + 104238 x296 + 94429 x297 + 97634 x298 + 103912 x299
       + 90130 x300 + 91103 x301 + 103155 x302 + 99631 x303 + 102840 x304
       + 93874 x305 + 95704 x306 + 102780 x307 + 105374 x308 + 106852 x309
       + 90609 x310 + 96555 x311 + 94538 x312 + 103874 x313 + 92475 x314
       + 97765 x315 + 109568 x316 + 101607 x317 + 98483 x318 + 109969 x319
       + 90391 x320 + 95160 x321 + 105007 x322 + 90937 x323 + 92985 x324
       + 104121 x325 + 97597 x326 + 95196 x327 + 103514 x328 + 109533 x329
       + 105308 x330 + 102791 x331 + 93877 x332 + 91264 x333 + 107561 x334
       + 92183 x335 + 98793 x336 + 104757 x337 + 94542 x338 + 92515 x339
       + 107726 x340 + 106330 x341 + 100601 x342 + 98488 x343 + 93694 x344
       + 106999 x345 + 94218 x346 + 109728 x347 + 105420 x348 + 106235 x349
       + 97776 x350 + 105706 x351 + 109289 x352 + 109067 x353 + 105739 x354
       + 107192 x355 + 103238 x356 + 102702 x357 + 90783 x358 + 105681 x359
       + 95945 x360 + 91614 x361 + 107492 x362 + 107551 x363 + 97821 x364
       + 103142 x365 + 92895 x366 + 95806 x367 + 108479 x368 + 94618 x369
       + 96766 x370 + 104825 x371 + 93840 x372 + 107863 x373 + 105606 x374
       + 98647 x375 + 93384 x376 + 97118 x377 + 94663 x378 + 95953 x379
       + 101267 x380 + 101012 x381 + 108465 x382 + 100790 x383 + 104299 x384
       + 101571 x385 + 101165 x386 + 107070 x387 + 92043 x388 + 96319 x389
       + 95029 x390 + 108137 x391 + 92990 x392 + 101397 x393 + 94321 x394
       + 99879 x395 + 107533 x396 + 91169 x397 + 91385 x398 + 108715 x399
       + 95779 x400 + 102889 x401 + 101928 x402 + 104248 x403 + 96286 x404
       + 93831 x405 + 107260 x406 + 90428 x407 + 100363 x408 + 92614 x409
       + 102725 x410 + 108810 x411 + 105867 x412 + 96523 x413 + 93571 x414
       + 92804 x415 + 104244 x416 + 92254 x417 + 102192 x418 + 102774 x419
       + 95091 x420 + 93597 x421 + 107848 x422 + 93026 x423 + 107157 x424
       + 97984 x425 + 90497 x426 + 103117 x427 + 94772 x428 + 96411 x429
       + 105376 x430 + 95376 x431 + 98627 x432 + 95810 x433 + 109368 x434
       + 108775 x435 + 102100 x436 + 108725 x437 + 109648 x438 + 96911 x439
       + 94176 x440 + 98473 x441 + 91712 x442 + 101123 x443 + 108203 x444
       + 97789 x445 + 108451 x446 + 97804 x447 + 109809 x448 + 101642 x449
       + 101611 x450 + 96049 x451 + 95607 x452 + 90976 x453 + 108903 x454
       + 90708 x455 + 91466 x456 + 90914 x457 + 107516 x458 + 105477 x459
       + 92002 x460 + 104282 x461 + 97959 x462 + 90795 x463 + 101375 x464
       + 109347 x465 + 100893 x466 + 92171 x467 + 99569 x468 + 109224 x469
       + 104051 x470 + 95949 x471 + 108037 x472 + 109694 x473 + 96326 x474
       + 91585 x475 + 103925 x476 + 101992 x477 + 101775 x478 + 102186 x479
       + 93049 x480 + 98376 x481 + 103647 x482 + 106613 x483 + 104372 x484
       + 92968 x485 + 97528 x486 + 98811 x487 + 100058 x488 + 104190 x489
       + 105230 x490 + 91621 x491 + 97328 x492 + 99417 x493 + 96430 x494
       + 96162 x495 + 105632 x496 + 92589 x497 + 96584 x498 + 103049 x499
       + 97391 x500 + 105637 x501 + 108682 x502 + 107892 x503 + 101352 x504
       + 99163 x505 + 102727 x506 + 96837 x507 + 109520 x508 + 92692 x509
       + 106415 x510 + 108796 x511 + 91625 x512 + 106413 x513 + 96603 x514
       + 102949 x515 + 90010 x516 + 93523 x517 + 107896 x518 + 107582 x519
       + 107362 x520 + 95122 x521 + 102045 x522 + 109489 x523 + 99906 x524
       + 98063 x525 + 99836 x526 + 101932 x527 + 109460 x528 + 90255 x529
       + 105763 x530 + 103555 x531 + 109191 x532 + 107601 x533 + 95020 x534
       + 90644 x535 + 99963 x536 + 92102 x537 + 102201 x538 + 90796 x539
       + 96820 x540 + 108491 x541 + 108353 x542 + 100085 x543 + 100599 x544
       + 96683 x545 + 105298 x546 + 105341 x547 + 105078 x548 + 106512 x549
       + 107818 x550 + 104484 x551 + 108891 x552 + 104583 x553 + 90863 x554
       + 91223 x555 + 106646 x556 + 107035 x557 + 101490 x558 + 93225 x559
       + 95481 x560 + 106290 x561 + 91043 x562 + 95622 x563 + 99446 x564
       + 92301 x565 + 101661 x566 + 91479 x567 + 97911 x568 + 91762 x569
       + 107772 x570 + 105494 x571 + 99975 x572 + 97052 x573 + 94780 x574
       + 93349 x575 + 108768 x576 + 105606 x577 + 104382 x578 + 105839 x579
       + 97014 x580 + 99957 x581 + 108777 x582 + 104295 x583 + 108406 x584
       + 108866 x585 + 94477 x586 + 101785 x587 + 108102 x588 + 100772 x589
       + 100534 x590 + 103211 x591 + 90028 x592 + 92195 x593 + 105682 x594
       + 106624 x595 + 108725 x596 + 105806 x597 + 94225 x598 + 107996 x599
       - 96096 x600 + 377362 x601 + 389674 x602 + 365909 x603 + 387613 x604
       + 400004 x605 + 386204 x606 + 401687 x607 + 423782 x608 + 426331 x609
       + 379920 x610 + 391831 x611 + 426120 x612 + 389539 x613 + 412539 x614
       + 390382 x615 + 420916 x616 + 424775 x617 + 426022 x618 + 392744 x619
       + 421191 x620 + 421337 x621 + 387160 x622 + 403629 x623 + 360874 x624
       + 365098 x625 + 428865 x626 + 430066 x627 + 419263 x628 + 408531 x629
       + 401580 x630 + 400647 x631 + 402632 x632 + 395150 x633 + 382031 x634
       + 375365 x635 + 387469 x636 + 362141 x637 + 387898 x638 + 421113 x639
       + 394866 x640 + 429431 x641 + 395775 x642 + 386116 x643 + 378182 x644
       + 375353 x645 + 436161 x646 + 432257 x647 + 386182 x648 + 418566 x649
       + 403004 x650 + 377484 x651 + 411413 x652 + 392806 x653 + 426690 x654
       + 381178 x655 + 388672 x656 + 375513 x657 + 418177 x658 + 393549 x659
       + 423231 x660
Subject To
 c1:   - x8 + x18 + x20 - x29 + x54  = 0
 c2:   - x68 + x78 + x80 - x89 + x114  = 0
 c3:   - x128 + x138 + x140 - x149 + x174  = 0
 c4:   - x188 + x198 + x200 - x209 + x234  = 0
 c5:   - x248 + x258 + x260 - x269 + x294  = 0
 c6:   - x308 + x318 + x320 - x329 + x354  = -1
 c7:   - x368 + x378 + x380 - x389 + x414  = 0
 c8:   - x428 + x438 + x440 - x449 + x474  = 0
 c9:   - x488 + x498 + x500 - x509 + x534  = 0
 c10:  - x548 + x558 + x560 - x569 + x594  = 0
 c11:  x2 + x3 - x9 - x15 + x17 - x27 + x37 + x48 + x49 + x50 - x52 - x58  = 0
 c12:  x62 + x63 - x69 - x75 + x77 - x87 + x97 + x108 + x109 + x110 - x112
       - x118  = 0
 c13:  x122 + x123 - x129 - x135 + x137 - x147 + x157 + x168 + x169 + x170
       - x172 - x178  = 0
 c14:  x182 + x183 - x189 - x195 + x197 - x207 + x217 + x228 + x229 + x230
       - x232 - x238  = 0
 c15:  x242 + x243 - x249 - x255 + x257 - x267 + x277 + x288 + x289 + x290
       - x292 - x298  = 0
 c16:  x302 + x303 - x309 - x315 + x317 - x327 + x337 + x348 + x349 + x350
       - x352 - x358  = 0
 c17:  x362 + x363 - x369 - x375 + x377 - x387 + x397 + x408 + x409 + x410
       - x412 - x418  = 0
 c18:  x422 + x423 - x429 - x435 + x437 - x447 + x457 + x468 + x469 + x470
       - x472 - x478  = 0
 c19:  x482 + x483 - x489 - x495 + x497 - x507 + x517 + x528 + x529 + x530
       - x532 - x538  = 0
 c20:  x542 + x543 - x549 - x555 + x557 - x567 + x577 + x588 + x589 + x590
       - x592 - x598  = 1
 c21:  x12 - x18 + x25 + x26 + x27 - x38 + x60  = 0
 c22:  x72 - x78 + x85 + x86 + x87 - x98 + x120  = 0
 c23:  x132 - x138 + x145 + x146 + x147 - x158 + x180  = 0
 c24:  x192 - x198 + x205 + x206 + x207 - x218 + x240  = 0
 c25:  x252 - x258 + x265 + x266 + x267 - x278 + x300  = 0
 c26:  x312 - x318 + x325 + x326 + x327 - x338 + x360  = 0
 c27:  x372 - x378 + x385 + x386 + x387 - x398 + x420  = 0
 c28:  x432 - x438 + x445 + x446 + x447 - x458 + x480  = 1
 c29:  x492 - x498 + x505 + x506 + x507 - x518 + x540  = 0
 c30:  x552 - x558 + x565 + x566 + x567 - x578 + x600  = 0
 c31:  - x7 + x8 - x32 + x41 + x45 + x56 - x57  = -1
 c32:  - x67 + x68 - x92 + x101 + x105 + x116 - x117  = 0
 c33:  - x127 + x128 - x152 + x161 + x165 + x176 - x177  = 0
 c34:  - x187 + x188 - x212 + x221 + x225 + x236 - x237  = 0
 c35:  - x247 + x248 - x272 + x281 + x285 + x296 - x297  = -1
 c36:  - x307 + x308 - x332 + x341 + x345 + x356 - x357  = 0
 c37:  - x367 + x368 - x392 + x401 + x405 + x416 - x417  = 1
 c38:  - x427 + x428 - x452 + x461 + x465 + x476 - x477  = 0
 c39:  - x487 + x488 - x512 + x521 + x525 + x536 - x537  = 0
 c40:  - x547 + x548 - x572 + x581 + x585 + x596 - x597  = 0
 c41:  x5 + x6 - x16 + x21 - x22 - x49 + x58  = 0
 c42:  x65 + x66 - x76 + x81 - x82 - x109 + x118  = 0
 c43:  x125 + x126 - x136 + x141 - x142 - x169 + x178  = 0
 c44:  x185 + x186 - x196 + x201 - x202 - x229 + x238  = 0
 c45:  x245 + x246 - x256 + x261 - x262 - x289 + x298  = 0
 c46:  x305 + x306 - x316 + x321 - x322 - x349 + x358  = 0
 c47:  x365 + x366 - x376 + x381 - x382 - x409 + x418  = 0
 c48:  x425 + x426 - x436 + x441 - x442 - x469 + x478  = 0
 c49:  x485 + x486 - x496 + x501 - x502 - x529 + x538  = 0
 c50:  x545 + x546 - x556 + x561 - x562 - x589 + x598  = 0
 c51:  - x1 - x5 - x12 + x14 - x24 + x31 + x32 + x53 - x55  = 0
 c52:  - x61 - x65 - x72 + x74 - x84 + x91 + x92 + x113 - x115  = 0
 c53:  - x121 - x125 - x132 + x134 - x144 + x151 + x152 + x173 - x175  = 0
 c54:  - x181 - x185 - x192 + x194 - x204 + x211 + x212 + x233 - x235  = 0
 c55:  - x241 - x245 - x252 + x254 - x264 + x271 + x272 + x293 - x295  = 0
 c56:  - x301 - x305 - x312 + x314 - x324 + x331 + x332 + x353 - x355  = 0
 c57:  - x361 - x365 - x372 + x374 - x384 + x391 + x392 + x413 - x415  = 0
 c58:  - x421 - x425 - x432 + x434 - x444 + x451 + x452 + x473 - x475  = 0
 c59:  - x481 - x485 - x492 + x494 - x504 + x511 + x512 + x533 - x535  = 1
 c60:  - x541 - x545 - x552 + x554 - x564 + x571 + x572 + x593 - x595  = 0
 c61:  x19 - x21 - x26 + x33 - x37 - x59  = 0
 c62:  x79 - x81 - x86 + x93 - x97 - x119  = 0
 c63:  x139 - x141 - x146 + x153 - x157 - x179  = 0
 c64:  x199 - x201 - x206 + x213 - x217 - x239  = 0
 c65:  x259 - x261 - x266 + x273 - x277 - x299  = 0
 c66:  x319 - x321 - x326 + x333 - x337 - x359  = 0
 c67:  x379 - x381 - x386 + x393 - x397 - x419  = 0
 c68:  x439 - x441 - x446 + x453 - x457 - x479  = 0
 c69:  x499 - x501 - x506 + x513 - x517 - x539  = 0
 c70:  x559 - x561 - x566 + x573 - x577 - x599  = 0
 c71:  x9 + x22 - x46 - x50 - x54 - x56  = 0
 c72:  x69 + x82 - x106 - x110 - x114 - x116  = 0
 c73:  x129 + x142 - x166 - x170 - x174 - x176  = 0
 c74:  x189 + x202 - x226 - x230 - x234 - x236  = 0
 c75:  x249 + x262 - x286 - x290 - x294 - x296  = 1
 c76:  x309 + x322 - x346 - x350 - x354 - x356  = 0
 c77:  x369 + x382 - x406 - x410 - x414 - x416  = 0
 c78:  x429 + x442 - x466 - x470 - x474 - x476  = 0
 c79:  x489 + x502 - x526 - x530 - x534 - x536  = 0
 c80:  x549 + x562 - x586 - x590 - x594 - x596  = 0
 c81:  - x6 - x10 - x23 + x24 - x31 + x39 - x40 - x42 + x51 + x57  = 0
 c82:  - x66 - x70 - x83 + x84 - x91 + x99 - x100 - x102 + x111 + x117  = 0
 c83:  - x126 - x130 - x143 + x144 - x151 + x159 - x160 - x162 + x171 + x177
        = -1
 c84:  - x186 - x190 - x203 + x204 - x211 + x219 - x220 - x222 + x231 + x237
        = 0
 c85:  - x246 - x250 - x263 + x264 - x271 + x279 - x280 - x282 + x291 + x297
        = 0
 c86:  - x306 - x310 - x323 + x324 - x331 + x339 - x340 - x342 + x351 + x357
        = 0
 c87:  - x366 - x370 - x383 + x384 - x391 + x399 - x400 - x402 + x411 + x417
        = 0
 c88:  - x426 - x430 - x443 + x444 - x451 + x459 - x460 - x462 + x471 + x477
        = 0
 c89:  - x486 - x490 - x503 + x504 - x511 + x519 - x520 - x522 + x531 + x537
        = 0
 c90:  - x546 - x550 - x563 + x564 - x571 + x579 - x580 - x582 + x591 + x597
        = 0
 c91:  - x4 + x10 + x11 + x13 - x14 + x34 - x48  = 0
 c92:  - x64 + x70 + x71 + x73 - x74 + x94 - x108  = 0
 c93:  - x124 + x130 + x131 + x133 - x134 + x154 - x168  = 1
 c94:  - x184 + x190 + x191 + x193 - x194 + x214 - x228  = 0
 c95:  - x244 + x250 + x251 + x253 - x254 + x274 - x288  = 0
 c96:  - x304 + x310 + x311 + x313 - x314 + x334 - x348  = 0
 c97:  - x364 + x370 + x371 + x373 - x374 + x394 - x408  = 0
 c98:  - x424 + x430 + x431 + x433 - x434 + x454 - x468  = 0
 c99:  - x484 + x490 + x491 + x493 - x494 + x514 - x528  = 0
 c100: - x544 + x550 + x551 + x553 - x554 + x574 - x588  = 0
 c101: - x34 + x35 + x38 + x42 + x47 - x51 + x55  = 0
 c102: - x94 + x95 + x98 + x102 + x107 - x111 + x115  = 0
 c103: - x154 + x155 + x158 + x162 + x167 - x171 + x175  = 0
 c104: - x214 + x215 + x218 + x222 + x227 - x231 + x235  = 0
 c105: - x274 + x275 + x278 + x282 + x287 - x291 + x295  = 0
 c106: - x334 + x335 + x338 + x342 + x347 - x351 + x355  = 0
 c107: - x394 + x395 + x398 + x402 + x407 - x411 + x415  = -1
 c108: - x454 + x455 + x458 + x462 + x467 - x471 + x475  = 0
 c109: - x514 + x515 + x518 + x522 + x527 - x531 + x535  = 0
 c110: - x574 + x575 + x578 + x582 + x587 - x591 + x595  = 0
 c111: - x2 + x7 + x15 - x19 - x25 + x30 + x36 + x40 - x41 - x43 + x46 - x47
        = 0
 c112: - x62 + x67 + x75 - x79 - x85 + x90 + x96 + x100 - x101 - x103 + x106
       - x107  = 1
 c113: - x122 + x127 + x135 - x139 - x145 + x150 + x156 + x160 - x161 - x163
       + x166 - x167  = 0
 c114: - x182 + x187 + x195 - x199 - x205 + x210 + x216 + x220 - x221 - x223
       + x226 - x227  = 0
 c115: - x242 + x247 + x255 - x259 - x265 + x270 + x276 + x280 - x281 - x283
       + x286 - x287  = 0
 c116: - x302 + x307 + x315 - x319 - x325 + x330 + x336 + x340 - x341 - x343
       + x346 - x347  = 0
 c117: - x362 + x367 + x375 - x379 - x385 + x390 + x396 + x400 - x401 - x403
       + x406 - x407  = 0
 c118: - x422 + x427 + x435 - x439 - x445 + x450 + x456 + x460 - x461 - x463
       + x466 - x467  = 0
 c119: - x482 + x487 + x495 - x499 - x505 + x510 + x516 + x520 - x521 - x523
       + x526 - x527  = 0
 c120: - x542 + x547 + x555 - x559 - x565 + x570 + x576 + x580 - x581 - x583
       + x586 - x587  = 0
 c121: x1 - x11 - x20 - x33 - x35 - x36 + x43 + x44 - x53 + x59 - x60  = 0
 c122: x61 - x71 - x80 - x93 - x95 - x96 + x103 + x104 - x113 + x119 - x120
        = -1
 c123: x121 - x131 - x140 - x153 - x155 - x156 + x163 + x164 - x173 + x179
       - x180  = 0
 c124: x181 - x191 - x200 - x213 - x215 - x216 + x223 + x224 - x233 + x239
       - x240  = 0
 c125: x241 - x251 - x260 - x273 - x275 - x276 + x283 + x284 - x293 + x299
       - x300  = 0
 c126: x301 - x311 - x320 - x333 - x335 - x336 + x343 + x344 - x353 + x359
       - x360  = 0
 c127: x361 - x371 - x380 - x393 - x395 - x396 + x403 + x404 - x413 + x419
       - x420  = 0
 c128: x421 - x431 - x440 - x453 - x455 - x456 + x463 + x464 - x473 + x479
       - x480  = 0
 c129: x481 - x491 - x500 - x513 - x515 - x516 + x523 + x524 - x533 + x539
       - x540  = 0
 c130: x541 - x551 - x560 - x573 - x575 - x576 + x583 + x584 - x593 + x599
       - x600  = -1
 c131: - x3 + x4 + x16 + x28 + x29 - x30 - x39 - x44  = 1
 c132: - x63 + x64 + x76 + x88 + x89 - x90 - x99 - x104  = 0
 c133: - x123 + x124 + x136 + x148 + x149 - x150 - x159 - x164  = 0
 c134: - x183 + x184 + x196 + x208 + x209 - x210 - x219 - x224  = 1
 c135: - x243 + x244 + x256 + x268 + x269 - x270 - x279 - x284  = 0
 c136: - x303 + x304 + x316 + x328 + x329 - x330 - x339 - x344  = 0
 c137: - x363 + x364 + x376 + x388 + x389 - x390 - x399 - x404  = 0
 c138: - x423 + x424 + x436 + x448 + x449 - x450 - x459 - x464  = -1
 c139: - x483 + x484 + x496 + x508 + x509 - x510 - x519 - x524  = -1
 c140: - x543 + x544 + x556 + x568 + x569 - x570 - x579 - x584  = 0
 c141: - x13 - x17 + x23 - x28 - x45 + x52  = 0
 c142: - x73 - x77 + x83 - x88 - x105 + x112  = 0
 c143: - x133 - x137 + x143 - x148 - x165 + x172  = 0
 c144: - x193 - x197 + x203 - x208 - x225 + x232  = -1
 c145: - x253 - x257 + x263 - x268 - x285 + x292  = 0
 c146: - x313 - x317 + x323 - x328 - x345 + x352  = 1
 c147: - x373 - x377 + x383 - x388 - x405 + x412  = 0
 c148: - x433 - x437 + x443 - x448 - x465 + x472  = 0
 c149: - x493 - x497 + x503 - x508 - x525 + x532  = 0
 c150: - x553 - x557 + x563 - x568 - x585 + x592  = 0
 c151: 4 x1 + 4 x61 + 4 x121 + 4 x181 + 4 x241 + 4 x301 + 4 x361 + 4 x421
       + 4 x481 + 4 x541 - 22 x601 <= 0
 c152: 4 x2 + 4 x62 + 4 x122 + 4 x182 + 4 x242 + 4 x302 + 4 x362 + 4 x422
       + 4 x482 + 4 x542 - 20 x602 <= 0
 c153: 4 x3 + 4 x63 + 4 x123 + 4 x183 + 4 x243 + 4 x303 + 4 x363 + 4 x423
       + 4 x483 + 4 x543 - 22 x603 <= 0
 c154: 4 x4 + 4 x64 + 4 x124 + 4 x184 + 4 x244 + 4 x304 + 4 x364 + 4 x424
       + 4 x484 + 4 x544 - 18 x604 <= 0
 c155: 4 x5 + 4 x65 + 4 x125 + 4 x185 + 4 x245 + 4 x305 + 4 x365 + 4 x425
       + 4 x485 + 4 x545 - 19 x605 <= 0
 c156: 4 x6 + 4 x66 + 4 x126 + 4 x186 + 4 x246 + 4 x306 + 4 x366 + 4 x426
       + 4 x486 + 4 x546 - 21 x606 <= 0
 c157: 4 x7 + 4 x67 + 4 x127 + 4 x187 + 4 x247 + 4 x307 + 4 x367 + 4 x427
       + 4 x487 + 4 x547 - 20 x607 <= 0
 c158: 4 x8 + 4 x68 + 4 x128 + 4 x188 + 4 x248 + 4 x308 + 4 x368 + 4 x428
       + 4 x488 + 4 x548 - 19 x608 <= 0
 c159: 4 x9 + 4 x69 + 4 x129 + 4 x189 + 4 x249 + 4 x309 + 4 x369 + 4 x429
       + 4 x489 + 4 x549 - 19 x609 <= 0
 c160: 4 x10 + 4 x70 + 4 x130 + 4 x190 + 4 x250 + 4 x310 + 4 x370 + 4 x430
       + 4 x490 + 4 x550 - 20 x610 <= 0
 c161: 4 x11 + 4 x71 + 4 x131 + 4 x191 + 4 x251 + 4 x311 + 4 x371 + 4 x431
       + 4 x491 + 4 x551 - 21 x611 <= 0
 c162: 4 x12 + 4 x72 + 4 x132 + 4 x192 + 4 x252 + 4 x312 + 4 x372 + 4 x432
       + 4 x492 + 4 x552 - 21 x612 <= 0
 c163: 4 x13 + 4 x73 + 4 x133 + 4 x193 + 4 x253 + 4 x313 + 4 x373 + 4 x433
       + 4 x493 + 4 x553 - 19 x613 <= 0
 c164: 4 x14 + 4 x74 + 4 x134 + 4 x194 + 4 x254 + 4 x314 + 4 x374 + 4 x434
       + 4 x494 + 4 x554 - 21 x614 <= 0
 c165: 4 x15 + 4 x75 + 4 x135 + 4 x195 + 4 x255 + 4 x315 + 4 x375 + 4 x435
       + 4 x495 + 4 x555 - 21 x615 <= 0
 c166: 4 x16 + 4 x76 + 4 x136 + 4 x196 + 4 x256 + 4 x316 + 4 x376 + 4 x436
       + 4 x496 + 4 x556 - 21 x616 <= 0
 c167: 4 x17 + 4 x77 + 4 x137 + 4 x197 + 4 x257 + 4 x317 + 4 x377 + 4 x437
       + 4 x497 + 4 x557 - 20 x617 <= 0
 c168: 4 x18 + 4 x78 + 4 x138 + 4 x198 + 4 x258 + 4 x318 + 4 x378 + 4 x438
       + 4 x498 + 4 x558 - 19 x618 <= 0
 c169: 4 x19 + 4 x79 + 4 x139 + 4 x199 + 4 x259 + 4 x319 + 4 x379 + 4 x439
       + 4 x499 + 4 x559 - 19 x619 <= 0
 c170: 4 x20 + 4 x80 + 4 x140 + 4 x200 + 4 x260 + 4 x320 + 4 x380 + 4 x440
       + 4 x500 + 4 x560 - 20 x620 <= 0
 c171: 4 x21 + 4 x81 + 4 x141 + 4 x201 + 4 x261 + 4 x321 + 4 x381 + 4 x441
       + 4 x501 + 4 x561 - 20 x621 <= 0
 c172: 4 x22 + 4 x82 + 4 x142 + 4 x202 + 4 x262 + 4 x322 + 4 x382 + 4 x442
       + 4 x502 + 4 x562 - 21 x622 <= 0
 c173: 4 x23 + 4 x83 + 4 x143 + 4 x203 + 4 x263 + 4 x323 + 4 x383 + 4 x443
       + 4 x503 + 4 x563 - 19 x623 <= 0
 c174: 4 x24 + 4 x84 + 4 x144 + 4 x204 + 4 x264 + 4 x324 + 4 x384 + 4 x444
       + 4 x504 + 4 x564 - 20 x624 <= 0
 c175: 4 x25 + 4 x85 + 4 x145 + 4 x205 + 4 x265 + 4 x325 + 4 x385 + 4 x445
       + 4 x505 + 4 x565 - 20 x625 <= 0
 c176: 4 x26 + 4 x86 + 4 x146 + 4 x206 + 4 x266 + 4 x326 + 4 x386 + 4 x446
       + 4 x506 + 4 x566 - 19 x626 <= 0
 c177: 4 x27 + 4 x87 + 4 x147 + 4 x207 + 4 x267 + 4 x327 + 4 x387 + 4 x447
       + 4 x507 + 4 x567 - 20 x627 <= 0
 c178: 4 x28 + 4 x88 + 4 x148 + 4 x208 + 4 x268 + 4 x328 + 4 x388 + 4 x448
       + 4 x508 + 4 x568 - 19 x628 <= 0
 c179: 4 x29 + 4 x89 + 4 x149 + 4 x209 + 4 x269 + 4 x329 + 4 x389 + 4 x449
       + 4 x509 + 4 x569 - 22 x629 <= 0
 c180: 4 x30 + 4 x90 + 4 x150 + 4 x210 + 4 x270 + 4 x330 + 4 x390 + 4 x450
       + 4 x510 + 4 x570 - 21 x630 <= 0
 c181: 4 x31 + 4 x91 + 4 x151 + 4 x211 + 4 x271 + 4 x331 + 4 x391 + 4 x451
       + 4 x511 + 4 x571 - 20 x631 <= 0
 c182: 4 x32 + 4 x92 + 4 x152 + 4 x212 + 4 x272 + 4 x332 + 4 x392 + 4 x452
       + 4 x512 + 4 x572 - 18 x632 <= 0
 c183: 4 x33 + 4 x93 + 4 x153 + 4 x213 + 4 x273 + 4 x333 + 4 x393 + 4 x453
       + 4 x513 + 4 x573 - 21 x633 <= 0
 c184: 4 x34 + 4 x94 + 4 x154 + 4 x214 + 4 x274 + 4 x334 + 4 x394 + 4 x454
       + 4 x514 + 4 x574 - 19 x634 <= 0
 c185: 4 x35 + 4 x95 + 4 x155 + 4 x215 + 4 x275 + 4 x335 + 4 x395 + 4 x455
       + 4 x515 + 4 x575 - 21 x635 <= 0
 c186: 4 x36 + 4 x96 + 4 x156 + 4 x216 + 4 x276 + 4 x336 + 4 x396 + 4 x456
       + 4 x516 + 4 x576 - 22 x636 <= 0
 c187: 4 x37 + 4 x97 + 4 x157 + 4 x217 + 4 x277 + 4 x337 + 4 x397 + 4 x457
       + 4 x517 + 4 x577 - 19 x637 <= 0
 c188: 4 x38 + 4 x98 + 4 x158 + 4 x218 + 4 x278 + 4 x338 + 4 x398 + 4 x458
       + 4 x518 + 4 x578 - 21 x638 <= 0
 c189: 4 x39 + 4 x99 + 4 x159 + 4 x219 + 4 x279 + 4 x339 + 4 x399 + 4 x459
       + 4 x519 + 4 x579 - 20 x639 <= 0
 c190: 4 x40 + 4 x100 + 4 x160 + 4 x220 + 4 x280 + 4 x340 + 4 x400 + 4 x460
       + 4 x520 + 4 x580 - 19 x640 <= 0
 c191: 4 x41 + 4 x101 + 4 x161 + 4 x221 + 4 x281 + 4 x341 + 4 x401 + 4 x461
       + 4 x521 + 4 x581 - 19 x641 <= 0
 c192: 4 x42 + 4 x102 + 4 x162 + 4 x222 + 4 x282 + 4 x342 + 4 x402 + 4 x462
       + 4 x522 + 4 x582 - 20 x642 <= 0
 c193: 4 x43 + 4 x103 + 4 x163 + 4 x223 + 4 x283 + 4 x343 + 4 x403 + 4 x463
       + 4 x523 + 4 x583 - 22 x643 <= 0
 c194: 4 x44 + 4 x104 + 4 x164 + 4 x224 + 4 x284 + 4 x344 + 4 x404 + 4 x464
       + 4 x524 + 4 x584 - 21 x644 <= 0
 c195: 4 x45 + 4 x105 + 4 x165 + 4 x225 + 4 x285 + 4 x345 + 4 x405 + 4 x465
       + 4 x525 + 4 x585 - 18 x645 <= 0
 c196: 4 x46 + 4 x106 + 4 x166 + 4 x226 + 4 x286 + 4 x346 + 4 x406 + 4 x466
       + 4 x526 + 4 x586 - 19 x646 <= 0
 c197: 4 x47 + 4 x107 + 4 x167 + 4 x227 + 4 x287 + 4 x347 + 4 x407 + 4 x467
       + 4 x527 + 4 x587 - 20 x647 <= 0
 c198: 4 x48 + 4 x108 + 4 x168 + 4 x228 + 4 x288 + 4 x348 + 4 x408 + 4 x468
       + 4 x528 + 4 x588 - 20 x648 <= 0
 c199: 4 x49 + 4 x109 + 4 x169 + 4 x229 + 4 x289 + 4 x349 + 4 x409 + 4 x469
       + 4 x529 + 4 x589 - 22 x649 <= 0
 c200: 4 x50 + 4 x110 + 4 x170 + 4 x230 + 4 x290 + 4 x350 + 4 x410 + 4 x470
       + 4 x530 + 4 x590 - 18 x650 <= 0
 c201: 4 x51 + 4 x111 + 4 x171 + 4 x231 + 4 x291 + 4 x351 + 4 x411 + 4 x471
       + 4 x531 + 4 x591 - 20 x651 <= 0
 c202: 4 x52 + 4 x112 + 4 x172 + 4 x232 + 4 x292 + 4 x352 + 4 x412 + 4 x472
       + 4 x532 + 4 x592 - 21 x652 <= 0
 c203: 4 x53 + 4 x113 + 4 x173 + 4 x233 + 4 x293 + 4 x353 + 4 x413 + 4 x473
       + 4 x533 + 4 x593 - 20 x653 <= 0
 c204: 4 x54 + 4 x114 + 4 x174 + 4 x234 + 4 x294 + 4 x354 + 4 x414 + 4 x474
       + 4 x534 + 4 x594 - 20 x654 <= 0
 c205: 4 x55 + 4 x115 + 4 x175 + 4 x235 + 4 x295 + 4 x355 + 4 x415 + 4 x475
       + 4 x535 + 4 x595 - 19 x655 <= 0
 c206: 4 x56 + 4 x116 + 4 x176 + 4 x236 + 4 x296 + 4 x356 + 4 x416 + 4 x476
       + 4 x536 + 4 x596 - 19 x656 <= 0
 c207: 4 x57 + 4 x117 + 4 x177 + 4 x237 + 4 x297 + 4 x357 + 4 x417 + 4 x477
       + 4 x537 + 4 x597 - 22 x657 <= 0
 c208: 4 x58 + 4 x118 + 4 x178 + 4 x238 + 4 x298 + 4 x358 + 4 x418 + 4 x478
       + 4 x538 + 4 x598 - 21 x658 <= 0
 c209: 4 x59 + 4 x119 + 4 x179 + 4 x239 + 4 x299 + 4 x359 + 4 x419 + 4 x479
       + 4 x539 + 4 x599 - 22 x659 <= 0
 c210: 4 x60 + 4 x120 + 4 x180 + 4 x240 + 4 x300 + 4 x360 + 4 x420 + 4 x480
       + 4 x540 + 4 x600 - 14 x660 <= 0
Bounds
 0 <= x1 <= 1
 0 <= x2 <= 1
 0 <= x3 <= 1
 0 <= x4 <= 1
 0 <= x5 <= 1
 0 <= x6 <= 1
 0 <= x7 <= 1
 0 <= x8 <= 1
 0 <= x9 <= 1
 0 <= x10 <= 1
 0 <= x11 <= 1
 0 <= x12 <= 1
 0 <= x13 <= 1
 0 <= x14 <= 1
 0 <= x15 <= 1
 0 <= x16 <= 1
 0 <= x17 <= 1
 0 <= x18 <= 1
 0 <= x19 <= 1
 0 <= x20 <= 1
 0 <= x21 <= 1
 0 <= x22 <= 1
 0 <= x23 <= 1
 0 <= x24 <= 1
 0 <= x25 <= 1
 0 <= x26 <= 1
 0 <= x27 <= 1
 0 <= x28 <= 1
 0 <= x29 <= 1
 0 <= x30 <= 1
 0 <= x31 <= 1
 0 <= x32 <= 1
 0 <= x33 <= 1
 0 <= x34 <= 1
 0 <= x35 <= 1
 0 <= x36 <= 1
 0 <= x37 <= 1
 0 <= x38 <= 1
 0 <= x39 <= 1
 0 <= x40 <= 1
 0 <= x41 <= 1
 0 <= x42 <= 1
 0 <= x43 <= 1
 0 <= x44 <= 1
 0 <= x45 <= 1
 0 <= x46 <= 1
 0 <= x47 <= 1
 0 <= x48 <= 1
 0 <= x49 <= 1
 0 <= x50 <= 1
 0 <= x51 <= 1
 0 <= x52 <= 1
 0 <= x53 <= 1
 0 <= x54 <= 1
 0 <= x55 <= 1
 0 <= x56 <= 1
 0 <= x57 <= 1
 0 <= x58 <= 1
 0 <= x59 <= 1
 0 <= x60 <= 1
 0 <= x61 <= 1
 0 <= x62 <= 1
 0 <= x63 <= 1
 0 <= x64 <= 1
 0 <= x65 <= 1
 0 <= x66 <= 1
 0 <= x67 <= 1
 0 <= x68 <= 1
 0 <= x69 <= 1
 0 <= x70 <= 1
 0 <= x71 <= 1
 0 <= x72 <= 1
 0 <= x73 <= 1
 0 <= x74 <= 1
 0 <= x75 <= 1
 0 <= x76 <= 1
 0 <= x77 <= 1
 0 <= x78 <= 1
 0 <= x79 <= 1
 0 <= x80 <= 1
 0 <= x81 <= 1
 0 <= x82 <= 1
 0 <= x83 <= 1
 0 <= x84 <= 1
 0 <= x85 <= 1
 0 <= x86 <= 1
 0 <= x87 <= 1
 0 <= x88 <= 1
 0 <= x89 <= 1
 0 <= x90 <= 1
 0 <= x91 <= 1
 0 <= x92 <= 1
 0 <= x93 <= 1
 0 <= x94 <= 1
 0 <= x95 <= 1
 0 <= x96 <= 1
 0 <= x97 <= 1
 0 <= x98 <= 1
 0 <= x99 <= 1
 0 <= x100 <= 1
 0 <= x101 <= 1
 0 <= x102 <= 1
 0 <= x103 <= 1
 0 <= x104 <= 1
 0 <= x105 <= 1
 0 <= x106 <= 1
 0 <= x107 <= 1
 0 <= x108 <= 1
 0 <= x109 <= 1
 0 <= x110 <= 1
 0 <= x111 <= 1
 0 <= x112 <= 1
 0 <= x113 <= 1
 0 <= x114 <= 1
 0 <= x115 <= 1
 0 <= x116 <= 1
 0 <= x117 <= 1
 0 <= x118 <= 1
 0 <= x119 <= 1
 0 <= x120 <= 1
 0 <= x121 <= 1
 0 <= x122 <= 1
 0 <= x123 <= 1
 0 <= x124 <= 1
 0 <= x125 <= 1
 0 <= x126 <= 1
 0 <= x127 <= 1
 0 <= x128 <= 1
 0 <= x129 <= 1
 0 <= x130 <= 1
 0 <= x131 <= 1
 0 <= x132 <= 1
 0 <= x133 <= 1
 0 <= x134 <= 1
 0 <= x135 <= 1
 0 <= x136 <= 1
 0 <= x137 <= 1
 0 <= x138 <= 1
 0 <= x139 <= 1
 0 <= x140 <= 1
 0 <= x141 <= 1
 0 <= x142 <= 1
 0 <= x143 <= 1
 0 <= x144 <= 1
 0 <= x145 <= 1
 0 <= x146 <= 1
 0 <= x147 <= 1
 0 <= x148 <= 1
 0 <= x149 <= 1
 0 <= x150 <= 1
 0 <= x151 <= 1
 0 <= x152 <= 1
 0 <= x153 <= 1
 0 <= x154 <= 1
 0 <= x155 <= 1
 0 <= x156 <= 1
 0 <= x157 <= 1
 0 <= x158 <= 1
 0 <= x159 <= 1
 0 <= x160 <= 1
 0 <= x161 <= 1
 0 <= x162 <= 1
 0 <= x163 <= 1
 0 <= x164 <= 1
 0 <= x165 <= 1
 0 <= x166 <= 1
 0 <= x167 <= 1
 0 <= x168 <= 1
 0 <= x169 <= 1
 0 <= x170 <= 1
 0 <= x171 <= 1
 0 <= x172 <= 1
 0 <= x173 <= 1
 0 <= x174 <= 1
 0 <= x175 <= 1
 0 <= x176 <= 1
 0 <= x177 <= 1
 0 <= x178 <= 1
 0 <= x179 <= 1
 0 <= x180 <= 1
 0 <= x181 <= 1
 0 <= x182 <= 1
 0 <= x183 <= 1
 0 <= x184 <= 1
 0 <= x185 <= 1
 0 <= x186 <= 1
 0 <= x187 <= 1
 0 <= x188 <= 1
 0 <= x189 <= 1
 0 <= x190 <= 1
 0 <= x191 <= 1
 0 <= x192 <= 1
 0 <= x193 <= 1
 0 <= x194 <= 1
 0 <= x195 <= 1
 0 <= x196 <= 1
 0 <= x197 <= 1
 0 <= x198 <= 1
 0 <= x199 <= 1
 0 <= x200 <= 1
 0 <= x201 <= 1
 0 <= x202 <= 1
 0 <= x203 <= 1
 0 <= x204 <= 1
 0 <= x205 <= 1
 0 <= x206 <= 1
 0 <= x207 <= 1
 0 <= x208 <= 1
 0 <= x209 <= 1
 0 <= x210 <= 1
 0 <= x211 <= 1
 0 <= x212 <= 1
 0 <= x213 <= 1
 0 <= x214 <= 1
 0 <= x215 <= 1
 0 <= x216 <= 1
 0 <= x217 <= 1
 0 <= x218 <= 1
 0 <= x219 <= 1
 0 <= x220 <= 1
 0 <= x221 <= 1
 0 <= x222 <= 1
 0 <= x223 <= 1
 0 <= x224 <= 1
 0 <= x225 <= 1
 0 <= x226 <= 1
 0 <= x227 <= 1
 0 <= x228 <= 1
 0 <= x229 <= 1
 0 <= x230 <= 1
 0 <= x231 <= 1
 0 <= x232 <= 1
 0 <= x233 <= 1
 0 <= x234 <= 1
 0 <= x235 <= 1
 0 <= x236 <= 1
 0 <= x237 <= 1
 0 <= x238 <= 1
 0 <= x239 <= 1
 0 <= x240 <= 1
 0 <= x241 <= 1
 0 <= x242 <= 1
 0 <= x243 <= 1
 0 <= x244 <= 1
 0 <= x245 <= 1
 0 <= x246 <= 1
 0 <= x247 <= 1
 0 <= x248 <= 1
 0 <= x249 <= 1
 0 <= x250 <= 1
 0 <= x251 <= 1
 0 <= x252 <= 1
 0 <= x253 <= 1
 0 <= x254 <= 1
 0 <= x255 <= 1
 0 <= x256 <= 1
 0 <= x257 <= 1
 0 <= x258 <= 1
 0 <= x259 <= 1
 0 <= x260 <= 1
 0 <= x261 <= 1
 0 <= x262 <= 1
 0 <= x263 <= 1
 0 <= x264 <= 1
 0 <= x265 <= 1
 0 <= x266 <= 1
 0 <= x267 <= 1
 0 <= x268 <= 1
 0 <= x269 <= 1
 0 <= x270 <= 1
 0 <= x271 <= 1
 0 <= x272 <= 1
 0 <= x273 <= 1
 0 <= x274 <= 1
 0 <= x275 <= 1
 0 <= x276 <= 1
 0 <= x277 <= 1
 0 <= x278 <= 1
 0 <= x279 <= 1
 0 <= x280 <= 1
 0 <= x281 <= 1
 0 <= x282 <= 1
 0 <= x283 <= 1
 0 <= x284 <= 1
 0 <= x285 <= 1
 0 <= x286 <= 1
 0 <= x287 <= 1
 0 <= x288 <= 1
 0 <= x289 <= 1
 0 <= x290 <= 1
 0 <= x291 <= 1
 0 <= x292 <= 1
 0 <= x293 <= 1
 0 <= x294 <= 1
 0 <= x295 <= 1
 0 <= x296 <= 1
 0 <= x297 <= 1
 0 <= x298 <= 1
 0 <= x299 <= 1
 0 <= x300 <= 1
 0 <= x301 <= 1
 0 <= x302 <= 1
 0 <= x303 <= 1
 0 <= x304 <= 1
 0 <= x305 <= 1
 0 <= x306 <= 1
 0 <= x307 <= 1
 0 <= x308 <= 1
 0 <= x309 <= 1
 0 <= x310 <= 1
 0 <= x311 <= 1
 0 <= x312 <= 1
 0 <= x313 <= 1
 0 <= x314 <= 1
 0 <= x315 <= 1
 0 <= x316 <= 1
 0 <= x317 <= 1
 0 <= x318 <= 1
 0 <= x319 <= 1
 0 <= x320 <= 1
 0 <= x321 <= 1
 0 <= x322 <= 1
 0 <= x323 <= 1
 0 <= x324 <= 1
 0 <= x325 <= 1
 0 <= x326 <= 1
 0 <= x327 <= 1
 0 <= x328 <= 1
 0 <= x329 <= 1
 0 <= x330 <= 1
 0 <= x331 <= 1
 0 <= x332 <= 1
 0 <= x333 <= 1
 0 <= x334 <= 1
 0 <= x335 <= 1
 0 <= x336 <= 1
 0 <= x337 <= 1
 0 <= x338 <= 1
 0 <= x339 <= 1
 0 <= x340 <= 1
 0 <= x341 <= 1
 0 <= x342 <= 1
 0 <= x343 <= 1
 0 <= x344 <= 1
 0 <= x345 <= 1
 0 <= x346 <= 1
 0 <= x347 <= 1
 0 <= x348 <= 1
 0 <= x349 <= 1
 0 <= x350 <= 1
 0 <= x351 <= 1
 0 <= x352 <= 1
 0 <= x353 <= 1
 0 <= x354 <= 1
 0 <= x355 <= 1
 0 <= x356 <= 1
 0 <= x357 <= 1
 0 <= x358 <= 1
 0 <= x359 <= 1
 0 <= x360 <= 1
 0 <= x361 <= 1
 0 <= x362 <= 1
 0 <= x363 <= 1
 0 <= x364 <= 1
 0 <= x365 <= 1
 0 <= x366 <= 1
 0 <= x367 <= 1
 0 <= x368 <= 1
 0 <= x369 <= 1
 0 <= x370 <= 1
 0 <= x371 <= 1
 0 <= x372 <= 1
 0 <= x373 <= 1
 0 <= x374 <= 1
 0 <= x375 <= 1
 0 <= x376 <= 1
 0 <= x377 <= 1
 0 <= x378 <= 1
 0 <= x379 <= 1
 0 <= x380 <= 1
 0 <= x381 <= 1
 0 <= x382 <= 1
 0 <= x383 <= 1
 0 <= x384 <= 1
 0 <= x385 <= 1
 0 <= x386 <= 1
 0 <= x387 <= 1
 0 <= x388 <= 1
 0 <= x389 <= 1
 0 <= x390 <= 1
 0 <= x391 <= 1
 0 <= x392 <= 1
 0 <= x393 <= 1
 0 <= x394 <= 1
 0 <= x395 <= 1
 0 <= x396 <= 1
 0 <= x397 <= 1
 0 <= x398 <= 1
 0 <= x399 <= 1
 0 <= x400 <= 1
 0 <= x401 <= 1
 0 <= x402 <= 1
 0 <= x403 <= 1
 0 <= x404 <= 1
 0 <= x405 <= 1
 0 <= x406 <= 1
 0 <= x407 <= 1
 0 <= x408 <= 1
 0 <= x409 <= 1
 0 <= x410 <= 1
 0 <= x411 <= 1
 0 <= x412 <= 1
 0 <= x413 <= 1
 0 <= x414 <= 1
 0 <= x415 <= 1
 0 <= x416 <= 1
 0 <= x417 <= 1
 0 <= x418 <= 1
 0 <= x419 <= 1
 0 <= x420 <= 1
 0 <= x421 <= 1
 0 <= x422 <= 1
 0 <= x423 <= 1
 0 <= x424 <= 1
 0 <= x425 <= 1
 0 <= x426 <= 1
 0 <= x427 <= 1
 0 <= x428 <= 1
 0 <= x429 <= 1
 0 <= x430 <= 1
 0 <= x431 <= 1
 0 <= x432 <= 1
 0 <= x433 <= 1
 0 <= x434 <= 1
 0 <= x435 <= 1
 0 <= x436 <= 1
 0 <= x437 <= 1
 0 <= x438 <= 1
 0 <= x439 <= 1
 0 <= x440 <= 1
 0 <= x441 <= 1
 0 <= x442 <= 1
 0 <= x443 <= 1
 0 <= x444 <= 1
 0 <= x445 <= 1
 0 <= x446 <= 1
 0 <= x447 <= 1
 0 <= x448 <= 1
 0 <= x449 <= 1
 0 <= x450 <= 1
 0 <= x451 <= 1
 0 <= x452 <= 1
 0 <= x453 <= 1
 0 <= x454 <= 1
 0 <= x455 <= 1
 0 <= x456 <= 1
 0 <= x457 <= 1
 0 <= x458 <= 1
 0 <= x459 <= 1
 0 <= x460 <= 1
 0 <= x461 <= 1
 0 <= x462 <= 1
 0 <= x463 <= 1
 0 <= x464 <= 1
 0 <= x465 <= 1
 0 <= x466 <= 1
 0 <= x467 <= 1
 0 <= x468 <= 1
 0 <= x469 <= 1
 0 <= x470 <= 1
 0 <= x471 <= 1
 0 <= x472 <= 1
 0 <= x473 <= 1
 0 <= x474 <= 1
 0 <= x475 <= 1
 0 <= x476 <= 1
 0 <= x477 <= 1
 0 <= x478 <= 1
 0 <= x479 <= 1
 0 <= x480 <= 1
 0 <= x481 <= 1
 0 <= x482 <= 1
 0 <= x483 <= 1
 0 <= x484 <= 1
 0 <= x485 <= 1
 0 <= x486 <= 1
 0 <= x487 <= 1
 0 <= x488 <= 1
 0 <= x489 <= 1
 0 <= x490 <= 1
 0 <= x491 <= 1
 0 <= x492 <= 1
 0 <= x493 <= 1
 0 <= x494 <= 1
 0 <= x495 <= 1
 0 <= x496 <= 1
 0 <= x497 <= 1
 0 <= x498 <= 1
 0 <= x499 <= 1
 0 <= x500 <= 1
 0 <= x501 <= 1
 0 <= x502 <= 1
 0 <= x503 <= 1
 0 <= x504 <= 1
 0 <= x505 <= 1
 0 <= x506 <= 1
 0 <= x507 <= 1
 0 <= x508 <= 1
 0 <= x509 <= 1
 0 <= x510 <= 1
 0 <= x511 <= 1
 0 <= x512 <= 1
 0 <= x513 <= 1
 0 <= x514 <= 1
 0 <= x515 <= 1
 0 <= x516 <= 1
 0 <= x517 <= 1
 0 <= x518 <= 1
 0 <= x519 <= 1
 0 <= x520 <= 1
 0 <= x521 <= 1
 0 <= x522 <= 1
 0 <= x523 <= 1
 0 <= x524 <= 1
 0 <= x525 <= 1
 0 <= x526 <= 1
 0 <= x527 <= 1
 0 <= x528 <= 1
 0 <= x529 <= 1
 0 <= x530 <= 1
 0 <= x531 <= 1
 0 <= x532 <= 1
 0 <= x533 <= 1
 0 <= x534 <= 1
 0 <= x535 <= 1
 0 <= x536 <= 1
 0 <= x537 <= 1
 0 <= x538 <= 1
 0 <= x539 <= 1
 0 <= x540 <= 1
 0 <= x541 <= 1
 0 <= x542 <= 1
 0 <= x543 <= 1
 0 <= x544 <= 1
 0 <= x545 <= 1
 0 <= x546 <= 1
 0 <= x547 <= 1
 0 <= x548 <= 1
 0 <= x549 <= 1
 0 <= x550 <= 1
 0 <= x551 <= 1
 0 <= x552 <= 1
 0 <= x553 <= 1
 0 <= x554 <= 1
 0 <= x555 <= 1
 0 <= x556 <= 1
 0 <= x557 <= 1
 0 <= x558 <= 1
 0 <= x559 <= 1
 0 <= x560 <= 1
 0 <= x561 <= 1
 0 <= x562 <= 1
 0 <= x563 <= 1
 0 <= x564 <= 1
 0 <= x565 <= 1
 0 <= x566 <= 1
 0 <= x567 <= 1
 0 <= x568 <= 1
 0 <= x569 <= 1
 0 <= x570 <= 1
 0 <= x571 <= 1
 0 <= x572 <= 1
 0 <= x573 <= 1
 0 <= x574 <= 1
 0 <= x575 <= 1
 0 <= x576 <= 1
 0 <= x577 <= 1
 0 <= x578 <= 1
 0 <= x579 <= 1
 0 <= x580 <= 1
 0 <= x581 <= 1
 0 <= x582 <= 1
 0 <= x583 <= 1
 0 <= x584 <= 1
 0 <= x585 <= 1
 0 <= x586 <= 1
 0 <= x587 <= 1
 0 <= x588 <= 1
 0 <= x589 <= 1
 0 <= x590 <= 1
 0 <= x591 <= 1
 0 <= x592 <= 1
 0 <= x593 <= 1
 0 <= x594 <= 1
 0 <= x595 <= 1
 0 <= x596 <= 1
 0 <= x597 <= 1
 0 <= x598 <= 1
 0 <= x599 <= 1
 0 <= x600 <= 1
 0 <= x601 <= 1
 0 <= x602 <= 1
 0 <= x603 <= 1
 0 <= x604 <= 1
 0 <= x605 <= 1
 0 <= x606 <= 1
 0 <= x607 <= 1
 0 <= x608 <= 1
 0 <= x609 <= 1
 0 <= x610 <= 1
 0 <= x611 <= 1
 0 <= x612 <= 1
 0 <= x613 <= 1
 0 <= x614 <= 1
 0 <= x615 <= 1
 0 <= x616 <= 1
 0 <= x617 <= 1
 0 <= x618 <= 1
 0 <= x619 <= 1
 0 <= x620 <= 1
 0 <= x621 <= 1
 0 <= x622 <= 1
 0 <= x623 <= 1
 0 <= x624 <= 1
 0 <= x625 <= 1
 0 <= x626 <= 1
 0 <= x627 <= 1
 0 <= x628 <= 1
 0 <= x629 <= 1
 0 <= x630 <= 1
 0 <= x631 <= 1
 0 <= x632 <= 1
 0 <= x633 <= 1
 0 <= x634 <= 1
 0 <= x635 <= 1
 0 <= x636 <= 1
 0 <= x637 <= 1
 0 <= x638 <= 1
 0 <= x639 <= 1
 0 <= x640 <= 1
 0 <= x641 <= 1
 0 <= x642 <= 1
 0 <= x643 <= 1
 0 <= x644 <= 1
 0 <= x645 <= 1
 0 <= x646 <= 1
 0 <= x647 <= 1
 0 <= x648 <= 1
 0 <= x649 <= 1
 0 <= x650 <= 1
 0 <= x651 <= 1
 0 <= x652 <= 1
 0 <= x653 <= 1
 0 <= x654 <= 1
 0 <= x655 <= 1
 0 <= x656 <= 1
 0 <= x657 <= 1
 0 <= x658 <= 1
 0 <= x659 <= 1
 0 <= x660 <= 1
Binaries
 x601  x602  x603  x604  x605  x606  x607  x608  x609  x610  x611  x612  x613 
 x614  x615  x616  x617  x618  x619  x620  x621  x622  x623  x624  x625  x626 
 x627  x628  x629  x630  x631  x632  x633  x634  x635  x636  x637  x638  x639 
 x640  x641  x642  x643  x644  x645  x646  x647  x648  x649  x650  x651  x652 
 x653  x654  x655  x656  x657  x658  x659  x660 
End
